[[4, 75, 68, 6, 2, 73, 33, 16, 63, 23, 56, 43, 41, 42, 64, 22, 62, 28, 74, 61, 21, 69, 36, 71, 60, 70, 20, 37, 5, 47, 48, 30, 29, 45, 27, 15, 57], [13, 54, 52, 34, 46, 8, 7, 35, 19, 53, 14, 59, 11, 66, 65, 38, 10, 58, 72, 31, 39, 9, 25, 55, 50, 18, 24, 49, 32, 44, 3, 51, 17, 40, 12, 26, 76, 67]]